NAME          ClpDefau
ROWS
 N  OBJROW
 L  R_248_0
 L  R_248_1
 L  R_248_2
 L  R_248_3
 L  R_248_4
 L  R_248_5
 L  R_248_6
 L  R_248_7
 L  R_248_8
 L  R_248_9
 L  R_248_10
 L  R_248_11
 L  R_248_12
 L  R_248_13
 L  R_248_14
 L  R_248_15
COLUMNS
    x_0       OBJROW     -8.           R_248_0   68.         
    x_0       R_248_1   23.            R_248_2   4.          
    x_0       R_248_3   23.            R_248_4   66.         
    x_0       R_248_5   66.            R_248_6   24.         
    x_0       R_248_8   54.            R_248_9   98.         
    x_0       R_248_10  76.            R_248_11  58.         
    x_0       R_248_12  97.            R_248_13  95.         
    x_0       R_248_14  68.            R_248_15  36.         
    x_1       OBJROW     -12.          R_248_1   46.         
    x_1       R_248_2   59.            R_248_4   73.         
    x_1       R_248_5   72.            R_248_6   63.         
    x_1       R_248_7   42.            R_248_11  99.         
    x_1       R_248_13  91.            R_248_15  65.         
    x_2       OBJROW     -11.          R_248_0   76.         
    x_2       R_248_1   94.            R_248_2   66.         
    x_2       R_248_3   88.            R_248_4   10.         
    x_2       R_248_5   44.            R_248_6   25.         
    x_2       R_248_8   74.            R_248_9   35.         
    x_2       R_248_10  88.            R_248_12  67.         
    x_2       R_248_13  35.            R_248_14  27.         
    x_3       OBJROW     -47.          R_248_0   92.         
    x_3       R_248_1   8.             R_248_2   23.         
    x_3       R_248_3   4.             R_248_4   9.          
    x_3       R_248_5   94.            R_248_7   17.         
    x_3       R_248_9   24.            R_248_10  1.          
    x_3       R_248_11  6.             R_248_12  32.         
    x_3       R_248_13  5.             R_248_14  79.         
    x_3       R_248_15  96.         
    x_4       OBJROW     -22.          R_248_0   44.         
    x_4       R_248_1   40.            R_248_2   99.         
    x_4       R_248_3   6.             R_248_5   80.         
    x_4       R_248_6   61.            R_248_8   88.         
    x_4       R_248_9   14.            R_248_10  17.         
    x_4       R_248_11  100.           R_248_12  66.         
    x_4       R_248_13  44.            R_248_14  78.         
    x_5       OBJROW     -95.          R_248_0   90.         
    x_5       R_248_1   18.            R_248_2   33.         
    x_5       R_248_3   21.            R_248_4   59.         
    x_5       R_248_5   66.            R_248_7   5.          
    x_5       R_248_9   57.            R_248_10  11.         
    x_5       R_248_11  80.            R_248_12  80.         
    x_5       R_248_13  33.            R_248_14  36.         
    x_5       R_248_15  1.          
    x_6       OBJROW     -86.          R_248_0   50.         
    x_6       R_248_1   15.            R_248_2   12.         
    x_6       R_248_3   13.            R_248_4   97.         
    x_6       R_248_5   28.            R_248_6   86.         
    x_6       R_248_7   40.            R_248_8   49.         
    x_6       R_248_9   98.            R_248_11  56.         
    x_6       R_248_12  3.             R_248_13  7.          
    x_7       OBJROW     -40.          R_248_0   13.         
    x_7       R_248_1   62.            R_248_2   67.         
    x_7       R_248_4   47.            R_248_5   48.         
    x_7       R_248_6   88.            R_248_7   14.         
    x_7       R_248_8   100.           R_248_9   3.          
    x_7       R_248_11  82.            R_248_12  27.         
    x_7       R_248_14  1.             R_248_15  48.         
    x_8       OBJROW     -33.          R_248_0   93.         
    x_8       R_248_1   97.            R_248_2   15.         
    x_8       R_248_3   51.            R_248_4   18.         
    x_8       R_248_5   51.            R_248_7   16.         
    x_8       R_248_8   43.            R_248_9   28.         
    x_8       R_248_10  4.             R_248_11  61.         
    x_8       R_248_12  93.            R_248_13  38.         
    x_8       R_248_14  59.            R_248_15  48.         
    x_9       OBJROW     -78.          R_248_0   68.         
    x_9       R_248_2   94.            R_248_6   30.         
    x_9       R_248_7   77.            R_248_8   55.         
    x_9       R_248_9   90.            R_248_11  74.         
    x_9       R_248_12  46.            R_248_13  70.         
    x_9       R_248_14  54.         
    x_10      OBJROW     -28.          R_248_0   88.         
    x_10      R_248_2   17.            R_248_4   91.         
    x_10      R_248_5   88.            R_248_6   23.         
    x_10      R_248_7   15.            R_248_8   97.         
    x_10      R_248_9   43.            R_248_10  92.         
    x_10      R_248_11  22.            R_248_13  91.         
    x_10      R_248_14  46.            R_248_15  74.         
    x_11      OBJROW     -78.          R_248_0   60.         
    x_11      R_248_1   4.             R_248_3   95.         
    x_11      R_248_4   66.            R_248_5   36.         
    x_11      R_248_6   91.            R_248_7   53.         
    x_11      R_248_8   61.            R_248_9   71.         
    x_11      R_248_10  96.            R_248_12  93.         
    x_11      R_248_13  80.            R_248_14  86.         
    x_11      R_248_15  82.         
    x_12      OBJROW     -5.           R_248_1   68.         
    x_12      R_248_2   60.            R_248_3   13.         
    x_12      R_248_4   28.            R_248_5   78.         
    x_12      R_248_6   28.            R_248_8   72.         
    x_12      R_248_9   26.            R_248_10  76.         
    x_12      R_248_11  63.            R_248_13  79.         
    x_12      R_248_14  62.            R_248_15  73.         
    x_13      OBJROW     -75.          R_248_0   92.         
    x_13      R_248_1   98.            R_248_2   1.          
    x_13      R_248_4   86.            R_248_5   97.         
    x_13      R_248_6   87.            R_248_8   65.         
    x_13      R_248_9   11.            R_248_10  45.         
    x_13      R_248_11  97.            R_248_14  81.         
    x_13      R_248_15  93.         
    x_14      OBJROW     -88.          R_248_0   21.         
    x_14      R_248_1   60.            R_248_2   20.         
    x_14      R_248_3   72.            R_248_4   1.          
    x_14      R_248_5   69.            R_248_7   27.         
    x_14      R_248_9   84.            R_248_10  89.         
    x_14      R_248_11  39.            R_248_12  41.         
    x_14      R_248_13  83.            R_248_15  83.         
    x_15      OBJROW     -21.          R_248_0   12.         
    x_15      R_248_1   27.            R_248_2   68.         
    x_15      R_248_4   65.            R_248_5   40.         
    x_15      R_248_6   59.            R_248_7   67.         
    x_15      R_248_8   15.            R_248_9   49.         
    x_15      R_248_11  46.            R_248_12  59.         
    x_15      R_248_13  64.            R_248_14  38.         
    x_15      R_248_15  18.         
    x_16      OBJROW     -56.          R_248_1   82.         
    x_16      R_248_2   35.            R_248_3   13.         
    x_16      R_248_5   97.            R_248_6   48.         
    x_16      R_248_7   18.            R_248_8   30.         
    x_16      R_248_9   71.            R_248_10  52.         
    x_16      R_248_12  36.            R_248_15  89.         
    x_17      OBJROW     -82.          R_248_0   42.         
    x_17      R_248_1   97.            R_248_2   91.         
    x_17      R_248_4   92.            R_248_5   80.         
    x_17      R_248_6   10.            R_248_7   51.         
    x_17      R_248_8   34.            R_248_10  62.         
    x_17      R_248_11  24.            R_248_12  49.         
    x_17      R_248_13  4.             R_248_14  22.         
    x_17      R_248_15  94.         
    x_18      OBJROW     -51.          R_248_0   56.         
    x_18      R_248_1   42.            R_248_2   77.         
    x_18      R_248_3   37.            R_248_4   20.         
    x_18      R_248_5   26.            R_248_7   19.         
    x_18      R_248_8   43.            R_248_9   54.         
    x_18      R_248_10  12.            R_248_11  32.         
    x_18      R_248_12  94.            R_248_13  44.         
    x_18      R_248_15  79.         
    x_19      OBJROW     -93.          R_248_0   19.         
    x_19      R_248_1   9.             R_248_2   100.        
    x_19      R_248_3   42.            R_248_4   15.         
    x_19      R_248_5   99.            R_248_6   51.         
    x_19      R_248_7   7.             R_248_8   61.         
    x_19      R_248_9   41.            R_248_10  80.         
    x_19      R_248_11  76.            R_248_12  86.         
    x_20      OBJROW     -66.          R_248_0   53.         
    x_20      R_248_1   58.            R_248_2   14.         
    x_20      R_248_3   76.            R_248_4   88.         
    x_20      R_248_5   23.            R_248_6   40.         
    x_20      R_248_7   91.            R_248_8   14.         
    x_20      R_248_9   29.            R_248_10  19.         
    x_20      R_248_11  12.            R_248_12  84.         
    x_20      R_248_13  61.            R_248_14  62.         
    x_20      R_248_15  4.          
    x_21      OBJROW     -48.          R_248_0   65.         
    x_21      R_248_1   7.             R_248_2   1.          
    x_21      R_248_4   88.            R_248_5   31.         
    x_21      R_248_6   63.            R_248_7   70.         
    x_21      R_248_8   14.            R_248_9   7.          
    x_21      R_248_10  81.            R_248_11  80.         
    x_21      R_248_12  51.            R_248_14  65.         
    x_21      R_248_15  87.         
    x_22      OBJROW     -70.          R_248_0   14.         
    x_22      R_248_2   27.            R_248_3   26.         
    x_22      R_248_4   56.            R_248_5   17.         
    x_22      R_248_6   39.            R_248_8   61.         
    x_22      R_248_9   68.            R_248_10  36.         
    x_22      R_248_11  90.            R_248_12  71.         
    x_22      R_248_13  4.             R_248_14  97.         
    x_22      R_248_15  25.         
    x_23      OBJROW     -57.          R_248_0   6.          
    x_23      R_248_1   81.            R_248_2   34.         
    x_23      R_248_3   61.            R_248_4   95.         
    x_23      R_248_5   29.            R_248_7   5.          
    x_23      R_248_8   14.            R_248_9   89.         
    x_23      R_248_10  24.            R_248_11  12.         
    x_23      R_248_14  38.         
    x_24      OBJROW     -65.          R_248_0   42.         
    x_24      R_248_1   36.            R_248_3   9.          
    x_24      R_248_4   54.            R_248_5   5.          
    x_24      R_248_6   85.            R_248_8   94.         
    x_24      R_248_9   3.             R_248_10  43.         
    x_24      R_248_11  94.            R_248_12  68.         
    x_24      R_248_13  26.            R_248_14  17.         
    x_24      R_248_15  58.         
    x_25      OBJROW     -35.          R_248_2   79.         
    x_25      R_248_3   25.            R_248_4   57.         
    x_25      R_248_5   61.            R_248_7   10.         
    x_25      R_248_8   78.            R_248_9   61.         
    x_25      R_248_10  79.            R_248_11  74.         
    x_25      R_248_13  40.            R_248_15  39.         
    x_26      OBJROW     -5.           R_248_0   4.          
    x_26      R_248_1   41.            R_248_2   69.         
    x_26      R_248_3   93.            R_248_4   57.         
    x_26      R_248_5   61.            R_248_7   75.         
    x_26      R_248_8   28.            R_248_9   78.         
    x_26      R_248_10  93.            R_248_11  76.         
    x_26      R_248_12  36.            R_248_13  64.         
    x_26      R_248_14  31.            R_248_15  39.         
    x_27      OBJROW     -4.           R_248_2   80.         
    x_27      R_248_3   43.            R_248_4   90.         
    x_27      R_248_5   53.            R_248_6   28.         
    x_27      R_248_7   34.            R_248_8   18.         
    x_27      R_248_10  56.            R_248_11  59.         
    x_27      R_248_12  61.            R_248_14  31.         
    x_27      R_248_15  69.         
    x_28      OBJROW     -47.          R_248_0   12.         
    x_28      R_248_1   70.            R_248_2   7.          
    x_28      R_248_3   56.            R_248_4   66.         
    x_28      R_248_5   47.            R_248_6   67.         
    x_28      R_248_8   9.             R_248_9   95.         
    x_28      R_248_10  36.            R_248_11  62.         
    x_28      R_248_12  84.            R_248_13  42.         
    x_28      R_248_14  7.             R_248_15  83.         
    x_29      OBJROW     -60.          R_248_0   98.         
    x_29      R_248_1   72.            R_248_2   87.         
    x_29      R_248_3   56.            R_248_4   5.          
    x_29      R_248_5   85.            R_248_6   7.          
    x_29      R_248_8   44.            R_248_9   13.         
    x_29      R_248_10  14.            R_248_11  45.         
    x_29      R_248_12  82.            R_248_13  62.         
    x_29      R_248_15  20.         
    x_30      OBJROW     -41.          R_248_0   44.         
    x_30      R_248_1   82.            R_248_2   87.         
    x_30      R_248_4   7.             R_248_6   70.         
    x_30      R_248_7   99.            R_248_8   54.         
    x_30      R_248_9   24.            R_248_10  6.          
    x_30      R_248_11  98.            R_248_14  38.         
    x_30      R_248_15  6.          
    x_31      OBJROW     -49.          R_248_1   29.         
    x_31      R_248_2   47.            R_248_3   77.         
    x_31      R_248_5   71.            R_248_6   1.          
    x_31      R_248_7   11.            R_248_8   36.         
    x_31      R_248_9   29.            R_248_10  67.         
    x_31      R_248_13  17.            R_248_14  17.         
    x_31      R_248_15  48.         
RHS
    RHS       R_248_0   428.           R_248_1   1491.       
    RHS       R_248_2   694.           R_248_3   1377.       
    RHS       R_248_4   1221.          R_248_5   1215.       
    RHS       R_248_6   1547.          R_248_7   1646.       
    RHS       R_248_8   1233.          R_248_9   652.        
    RHS       R_248_10  1334.          R_248_11  1537.       
    RHS       R_248_12  581.           R_248_13  1038.       
    RHS       R_248_14  618.           R_248_15  367.        
BOUNDS
 UI BOUND     x_0       100.        
 UI BOUND     x_1       100.        
 UI BOUND     x_2       100.        
 UI BOUND     x_3       100.        
 UI BOUND     x_4       100.        
 UI BOUND     x_5       100.        
 UI BOUND     x_6       100.        
 UI BOUND     x_7       100.        
 UI BOUND     x_8       100.        
 UI BOUND     x_9       100.        
 UI BOUND     x_10      100.        
 UI BOUND     x_11      100.        
 UI BOUND     x_12      100.        
 UI BOUND     x_13      100.        
 UI BOUND     x_14      100.        
 UI BOUND     x_15      100.        
 UI BOUND     x_16      100.        
 UI BOUND     x_17      100.        
 UI BOUND     x_18      100.        
 UI BOUND     x_19      100.        
 UI BOUND     x_20      100.        
 UI BOUND     x_21      100.        
 UI BOUND     x_22      100.        
 UI BOUND     x_23      100.        
 UI BOUND     x_24      100.        
 UI BOUND     x_25      100.        
 UI BOUND     x_26      100.        
 UI BOUND     x_27      100.        
 UI BOUND     x_28      100.        
 UI BOUND     x_29      100.        
 UI BOUND     x_30      100.        
 UI BOUND     x_31      100.        
ENDATA
